
Gurobi 12.0.2 (win64) logging started Sat Feb  7 07:36:17 2026

Set parameter LogFile to value "gurobi_stats_logs\m10n10\sample_data_26_size_10_PCP.log"
Set parameter MIPGap to value 0.01
Set parameter TimeLimit to value 0
Gurobi Optimizer version 12.0.2 build v12.0.2rc0 (win64 - Windows 11+.0 (26200.2))

CPU model: AMD Ryzen 7 8845H w/ Radeon 780M Graphics, instruction set [SSE2|AVX|AVX2|AVX512]
Thread count: 8 physical cores, 16 logical processors, using up to 16 threads

Non-default parameters:
TimeLimit  0
MIPGap  0.01

Optimize a model with 16702 rows, 2798 columns and 63265 nonzeros
Model fingerprint: 0x5c8e20d0
Variable types: 2118 continuous, 680 integer (680 binary)
Coefficient statistics:
  Matrix range     [5e-02, 2e+00]
  Objective range  [3e-02, 2e-01]
  Bounds range     [1e+00, 1e+00]
  RHS range        [1e-01, 2e+00]

Explored 0 nodes (0 simplex iterations) in 0.00 seconds (0.00 work units)
Thread count was 1 (of 16 available processors)

Solution count 0

Time limit reached
Best objective -, best bound -, gap -
